Maximize
  9 x1 + 9 x2 + 6 x3 + 2 x4
Subject To
 Coverage_Constraint_0: - x1 + y1 + y4 >= 0
 Coverage_Constraint_1: - x2 + y1 + y2 + y3 + y4 >= 0
 Coverage_Constraint_2: - x3 + y3 + y4 >= 0
 Coverage_Constraint_3: - x4 + y1 + y2 + y3 + y4 >= 0
 Facility_Constraint: y1 + y2 + y3 + y4 <= 1
Bounds
Binaries
 x1 x2 x3 x4 y1 y2 y3 y4
End
